nNurses = 166;
nHours = 33;
minHours = 7;
maxHours = 13;
maxConsec = 12;
maxPresence = 12;
demand = [11, 11, 14, 14, 9, 7, 7, 7, 11, 16, 11, 8, 8, 6, 8, 13, 17, 16, 18, 16, 15, 12, 17, 18, 13, 15, 15, 15, 18, 23, 21, 26, 27];
